data;
set K:= K1 K2 K3 K4 K5 K6 K7 ;

set F:= F1 F2 ;

set Q:= Q1 Q2 ;

param T:= 45;
param V: 
	K1  K2  K3  K4  K5  K6  K7  :=
Q1	1   1   1   1   0   0   0   
Q2	0   0   0   0   1   1   1   
; # if resorce k is of type q

param TF:= 
K1 6
K2 6
K3 6
K4 6
K5 12
K6 12
K7 12
; # number of continuous time slots resource can fly

param TR:= 
K1 2
K2 2
K3 2
K4 2
K5 4
K6 4
K7 4
; #  number of continuous time slots resource k needs to rest between flights

param P:= 
K1 36
K2 36
K3 36
K4 36
K5 36
K6 36
K7 36
; #  number of continuous time slots a pilot can be present including rest times for resource k 

param N:= 
K1 4
K2 4
K3 4
K4 4
K5 2
K6 2
K7 2
; # max number of flights resource k can fly in the total time period

param A: 
	K1  K2  K3  K4  K5  K6  K7  :=
1	1   1   1   1   1   1   1   
2	1   1   1   1   1   1   1   
3	1   1   1   1   1   1   1   
4	1   1   1   1   1   1   1   
5	1   1   1   1   1   1   1   
6	1   1   1   1   1   1   1   
7	1   1   1   1   1   1   1   
8	1   1   1   1   1   1   1   
9	1   1   1   1   1   1   1   
10	1   1   1   1   1   1   1   
11	1   1   1   1   1   1   1   
12	1   1   1   1   1   1   1   
13	1   1   1   1   1   1   1   
14	1   1   1   1   1   1   1   
15	1   1   1   1   1   1   1   
16	1   1   1   1   1   1   1   
17	1   1   1   1   1   1   1   
18	1   1   1   1   1   1   1   
19	1   1   1   1   1   1   1   
20	1   1   1   1   1   1   1   
21	1   1   1   1   1   1   1   
22	1   1   1   1   1   1   1   
23	1   1   1   1   1   1   1   
24	1   1   1   1   1   1   1   
25	1   1   1   1   1   1   1   
26	1   1   1   1   1   1   1   
27	1   1   1   1   1   1   1   
28	1   1   1   1   1   1   1   
29	1   1   1   1   1   1   1   
30	1   1   1   1   1   1   1   
31	1   1   1   1   1   1   1   
32	1   1   1   1   1   1   1   
33	1   1   1   1   1   1   1   
34	1   1   1   1   1   1   1   
35	1   1   1   1   1   1   1   
36	1   1   1   1   1   1   1   
37	1   1   1   1   1   1   1   
38	1   1   1   1   1   1   1   
39	1   1   1   1   1   1   1   
40	1   1   1   1   1   1   1   
41	1   1   1   1   1   1   1   
42	1   1   1   1   1   1   1   
43	1   1   1   1   1   1   1   
44	1   1   1   1   1   1   1   
45	1   1   1   1   1   1   1   
; # availability of resorce k in time slot t

param B: 
	F1  F2  :=
Q1	0   0   
Q2	0   0   
; # if front f requires resources of type q

param U: 
	F1  F2  :=
K1	0   0   
K2	0   0   
K3	0   0   
K4	0   0   
K5	0   0   
K6	2   2   
K7	1   1   
; # transit time of resource

param C:= 
K1 900
K2 900
K3 1500
K4 4500
K5 5500
K6 5500
K7 5500
; #  water capacity of resource k

param S:= 
F1 7
F2 8
; # max number of resources that can fly at front f in the same time slot

param D:= 

[*,*,F1 ]:  K1    K2    K3    K4    K5    K6    K7    :=
1           1.70  1.70  1.70  1.36  1.02  1.02  1.02  
2           1.70  1.70  1.70  1.36  1.02  1.02  1.02  
3           1.70  1.70  1.70  1.36  1.02  1.02  1.02  
4           1.70  1.70  1.70  1.36  1.02  1.02  1.02  
5           1.70  1.70  1.70  1.36  1.02  1.02  1.02  
6           1.70  1.70  1.70  1.36  1.02  1.02  1.02  
7           1.70  1.70  1.70  1.36  1.02  1.02  1.02  
8           1.70  1.70  1.70  1.36  1.02  1.02  1.02  
9           1.70  1.70  1.70  1.36  1.02  1.02  1.02  
10          1.70  1.70  1.70  1.36  1.02  1.02  1.02  
11          1.70  1.70  1.70  1.36  1.02  1.02  1.02  
12          1.70  1.70  1.70  1.36  1.02  1.02  1.02  
13          1.70  1.70  1.70  1.36  1.02  1.02  1.02  
14          1.70  1.70  1.70  1.36  1.02  1.02  1.02  
15          1.70  1.70  1.70  1.36  1.02  1.02  1.02  
16          1.70  1.70  1.70  1.36  1.02  1.02  1.02  
17          1.70  1.70  1.70  1.36  1.02  1.02  1.02  
18          1.70  1.70  1.70  1.36  1.02  1.02  1.02  
19          1.70  1.70  1.70  1.36  1.02  1.02  1.02  
20          1.70  1.70  1.70  1.36  1.02  1.02  1.02  
21          1.70  1.70  1.70  1.36  1.02  1.02  1.02  
22          1.70  1.70  1.70  1.36  1.02  1.02  1.02  
23          1.70  1.70  1.70  1.36  1.02  1.02  1.02  
24          1.70  1.70  1.70  1.36  1.02  1.02  1.02  
25          1.62  1.62  1.62  1.29  0.97  0.97  0.97  
26          1.62  1.62  1.62  1.29  0.97  0.97  0.97  
27          1.62  1.62  1.62  1.29  0.97  0.97  0.97  
28          1.62  1.62  1.62  1.29  0.97  0.97  0.97  
29          1.62  1.62  1.62  1.29  0.97  0.97  0.97  
30          1.62  1.62  1.62  1.29  0.97  0.97  0.97  
31          1.62  1.62  1.62  1.29  0.97  0.97  0.97  
32          1.62  1.62  1.62  1.29  0.97  0.97  0.97  
33          1.62  1.62  1.62  1.29  0.97  0.97  0.97  
34          1.70  1.70  1.70  1.36  1.02  1.02  1.02  
35          1.70  1.70  1.70  1.36  1.02  1.02  1.02  
36          1.70  1.70  1.70  1.36  1.02  1.02  1.02  
37          1.70  1.70  1.70  1.36  1.02  1.02  1.02  
38          1.70  1.70  1.70  1.36  1.02  1.02  1.02  
39          1.70  1.70  1.70  1.36  1.02  1.02  1.02  
40          1.70  1.70  1.70  1.36  1.02  1.02  1.02  
41          1.70  1.70  1.70  1.36  1.02  1.02  1.02  
42          1.70  1.70  1.70  1.36  1.02  1.02  1.02  
43          1.70  1.70  1.70  1.36  1.02  1.02  1.02  
44          1.70  1.70  1.70  1.36  1.02  1.02  1.02  
45          1.70  1.70  1.70  1.36  1.02  1.02  1.02  

[*,*,F2 ]:  K1    K2    K3    K4    K5    K6    K7    :=
1           1.44  1.44  1.44  1.14  0.86  0.86  0.86  
2           1.44  1.44  1.44  1.14  0.86  0.86  0.86  
3           1.44  1.44  1.44  1.14  0.86  0.86  0.86  
4           1.44  1.44  1.44  1.14  0.86  0.86  0.86  
5           1.44  1.44  1.44  1.14  0.86  0.86  0.86  
6           1.44  1.44  1.44  1.14  0.86  0.86  0.86  
7           1.44  1.44  1.44  1.14  0.86  0.86  0.86  
8           1.44  1.44  1.44  1.14  0.86  0.86  0.86  
9           1.44  1.44  1.44  1.14  0.86  0.86  0.86  
10          1.44  1.44  1.44  1.14  0.86  0.86  0.86  
11          1.44  1.44  1.44  1.14  0.86  0.86  0.86  
12          1.44  1.44  1.44  1.14  0.86  0.86  0.86  
13          1.44  1.44  1.44  1.14  0.86  0.86  0.86  
14          1.44  1.44  1.44  1.14  0.86  0.86  0.86  
15          1.44  1.44  1.44  1.14  0.86  0.86  0.86  
16          1.44  1.44  1.44  1.14  0.86  0.86  0.86  
17          1.44  1.44  1.44  1.14  0.86  0.86  0.86  
18          1.44  1.44  1.44  1.14  0.86  0.86  0.86  
19          1.44  1.44  1.44  1.14  0.86  0.86  0.86  
20          1.44  1.44  1.44  1.14  0.86  0.86  0.86  
21          1.44  1.44  1.44  1.14  0.86  0.86  0.86  
22          1.44  1.44  1.44  1.14  0.86  0.86  0.86  
23          1.44  1.44  1.44  1.14  0.86  0.86  0.86  
24          1.44  1.44  1.44  1.14  0.86  0.86  0.86  
25          1.36  1.36  1.36  1.09  0.82  0.82  0.82  
26          1.36  1.36  1.36  1.09  0.82  0.82  0.82  
27          1.36  1.36  1.36  1.09  0.82  0.82  0.82  
28          1.36  1.36  1.36  1.09  0.82  0.82  0.82  
29          1.36  1.36  1.36  1.09  0.82  0.82  0.82  
30          1.36  1.36  1.36  1.09  0.82  0.82  0.82  
31          1.36  1.36  1.36  1.09  0.82  0.82  0.82  
32          1.36  1.36  1.36  1.09  0.82  0.82  0.82  
33          1.36  1.36  1.36  1.09  0.82  0.82  0.82  
34          1.44  1.44  1.44  1.14  0.86  0.86  0.86  
35          1.44  1.44  1.44  1.14  0.86  0.86  0.86  
36          1.44  1.44  1.44  1.14  0.86  0.86  0.86  
37          1.44  1.44  1.44  1.14  0.86  0.86  0.86  
38          1.44  1.44  1.44  1.14  0.86  0.86  0.86  
39          1.44  1.44  1.44  1.14  0.86  0.86  0.86  
40          1.44  1.44  1.44  1.14  0.86  0.86  0.86  
41          1.44  1.44  1.44  1.14  0.86  0.86  0.86  
42          1.44  1.44  1.44  1.14  0.86  0.86  0.86  
43          1.44  1.44  1.44  1.14  0.86  0.86  0.86  
44          1.44  1.44  1.44  1.14  0.86  0.86  0.86  
45          1.44  1.44  1.44  1.14  0.86  0.86  0.86  
; # downloads resource k can do at front f in time t if intermediate time slot

param E:= 

[*,*,F1 ]:  K1    K2    K3    K4    K5    K6    K7    :=
1           0.03  0.26  0.46  0.41  0.30  0.21  0.49  
2           0.03  0.26  0.46  0.41  0.30  0.21  0.49  
3           0.03  0.26  0.46  0.41  0.30  0.21  0.49  
4           0.03  0.26  0.46  0.41  0.30  0.21  0.49  
5           0.03  0.26  0.46  0.41  0.30  0.21  0.49  
6           0.03  0.26  0.46  0.41  0.30  0.21  0.49  
7           0.03  0.26  0.46  0.41  0.30  0.21  0.49  
8           0.03  0.26  0.46  0.41  0.30  0.21  0.49  
9           0.03  0.26  0.46  0.41  0.30  0.21  0.49  
10          0.03  0.26  0.46  0.41  0.30  0.21  0.49  
11          0.03  0.26  0.46  0.41  0.30  0.21  0.49  
12          0.03  0.26  0.46  0.41  0.30  0.21  0.49  
13          0.03  0.26  0.46  0.41  0.30  0.21  0.49  
14          0.03  0.26  0.46  0.41  0.30  0.21  0.49  
15          0.03  0.26  0.46  0.41  0.30  0.21  0.49  
16          0.03  0.26  0.46  0.41  0.30  0.21  0.49  
17          0.03  0.26  0.46  0.41  0.30  0.21  0.49  
18          0.03  0.26  0.46  0.41  0.30  0.21  0.49  
19          0.03  0.26  0.46  0.41  0.30  0.21  0.49  
20          0.03  0.26  0.46  0.41  0.30  0.21  0.49  
21          0.03  0.26  0.46  0.41  0.30  0.21  0.49  
22          0.03  0.26  0.46  0.41  0.30  0.21  0.49  
23          0.03  0.26  0.46  0.41  0.30  0.21  0.49  
24          0.03  0.26  0.46  0.41  0.30  0.21  0.49  
25          0.03  0.24  0.44  0.39  0.28  0.20  0.47  
26          0.03  0.24  0.44  0.39  0.28  0.20  0.47  
27          0.03  0.24  0.44  0.39  0.28  0.20  0.47  
28          0.03  0.24  0.44  0.39  0.28  0.20  0.47  
29          0.03  0.24  0.44  0.39  0.28  0.20  0.47  
30          0.03  0.24  0.44  0.39  0.28  0.20  0.47  
31          0.03  0.24  0.44  0.39  0.28  0.20  0.47  
32          0.03  0.24  0.44  0.39  0.28  0.20  0.47  
33          0.03  0.24  0.44  0.39  0.28  0.20  0.47  
34          0.03  0.26  0.46  0.41  0.30  0.21  0.49  
35          0.03  0.26  0.46  0.41  0.30  0.21  0.49  
36          0.03  0.26  0.46  0.41  0.30  0.21  0.49  
37          0.03  0.26  0.46  0.41  0.30  0.21  0.49  
38          0.03  0.26  0.46  0.41  0.30  0.21  0.49  
39          0.03  0.26  0.46  0.41  0.30  0.21  0.49  
40          0.03  0.26  0.46  0.41  0.30  0.21  0.49  
41          0.03  0.26  0.46  0.41  0.30  0.21  0.49  
42          0.03  0.26  0.46  0.41  0.30  0.21  0.49  
43          0.03  0.26  0.46  0.41  0.30  0.21  0.49  
44          0.03  0.26  0.46  0.41  0.30  0.21  0.49  
45          0.03  0.26  0.46  0.41  0.30  0.21  0.49  

[*,*,F2 ]:  K1    K2    K3    K4    K5    K6    K7    :=
1           0.04  0.19  0.39  0.41  0.23  0.22  0.46  
2           0.04  0.19  0.39  0.41  0.23  0.22  0.46  
3           0.04  0.19  0.39  0.41  0.23  0.22  0.46  
4           0.04  0.19  0.39  0.41  0.23  0.22  0.46  
5           0.04  0.19  0.39  0.41  0.23  0.22  0.46  
6           0.04  0.19  0.39  0.41  0.23  0.22  0.46  
7           0.04  0.19  0.39  0.41  0.23  0.22  0.46  
8           0.04  0.19  0.39  0.41  0.23  0.22  0.46  
9           0.04  0.19  0.39  0.41  0.23  0.22  0.46  
10          0.04  0.19  0.39  0.41  0.23  0.22  0.46  
11          0.04  0.19  0.39  0.41  0.23  0.22  0.46  
12          0.04  0.19  0.39  0.41  0.23  0.22  0.46  
13          0.04  0.19  0.39  0.41  0.23  0.22  0.46  
14          0.04  0.19  0.39  0.41  0.23  0.22  0.46  
15          0.04  0.19  0.39  0.41  0.23  0.22  0.46  
16          0.04  0.19  0.39  0.41  0.23  0.22  0.46  
17          0.04  0.19  0.39  0.41  0.23  0.22  0.46  
18          0.04  0.19  0.39  0.41  0.23  0.22  0.46  
19          0.04  0.19  0.39  0.41  0.23  0.22  0.46  
20          0.04  0.19  0.39  0.41  0.23  0.22  0.46  
21          0.04  0.19  0.39  0.41  0.23  0.22  0.46  
22          0.04  0.19  0.39  0.41  0.23  0.22  0.46  
23          0.04  0.19  0.39  0.41  0.23  0.22  0.46  
24          0.04  0.19  0.39  0.41  0.23  0.22  0.46  
25          0.04  0.18  0.37  0.39  0.22  0.21  0.43  
26          0.04  0.18  0.37  0.39  0.22  0.21  0.43  
27          0.04  0.18  0.37  0.39  0.22  0.21  0.43  
28          0.04  0.18  0.37  0.39  0.22  0.21  0.43  
29          0.04  0.18  0.37  0.39  0.22  0.21  0.43  
30          0.04  0.18  0.37  0.39  0.22  0.21  0.43  
31          0.04  0.18  0.37  0.39  0.22  0.21  0.43  
32          0.04  0.18  0.37  0.39  0.22  0.21  0.43  
33          0.04  0.18  0.37  0.39  0.22  0.21  0.43  
34          0.04  0.19  0.39  0.41  0.23  0.22  0.46  
35          0.04  0.19  0.39  0.41  0.23  0.22  0.46  
36          0.04  0.19  0.39  0.41  0.23  0.22  0.46  
37          0.04  0.19  0.39  0.41  0.23  0.22  0.46  
38          0.04  0.19  0.39  0.41  0.23  0.22  0.46  
39          0.04  0.19  0.39  0.41  0.23  0.22  0.46  
40          0.04  0.19  0.39  0.41  0.23  0.22  0.46  
41          0.04  0.19  0.39  0.41  0.23  0.22  0.46  
42          0.04  0.19  0.39  0.41  0.23  0.22  0.46  
43          0.04  0.19  0.39  0.41  0.23  0.22  0.46  
44          0.04  0.19  0.39  0.41  0.23  0.22  0.46  
45          0.04  0.19  0.39  0.41  0.23  0.22  0.46  
; # downloads resource k can do at front f in time t if starting or ending flight

param W: 
	F1        F2        :=
1	1128.97   607.91    
2	4515.87   2431.62   
3	4515.87   2431.62   
4	4515.87   2431.62   
5	4515.87   2431.62   
6	4515.87   2431.62   
7	4515.87   2431.62   
8	4515.87   2431.62   
9	4515.87   2431.62   
10	4515.87   2431.62   
11	4515.87   2431.62   
12	4515.87   2431.62   
13	4515.87   2431.62   
14	4515.87   2431.62   
15	4515.87   2431.62   
16	4515.87   2431.62   
17	4515.87   2431.62   
18	4515.87   2431.62   
19	2007.05   1080.72   
20	2007.05   1080.72   
21	2007.05   1080.72   
22	2007.05   1080.72   
23	2007.05   1080.72   
24	2007.05   1080.72   
25	2007.05   1080.72   
26	2007.05   1080.72   
27	2007.05   1080.72   
28	2007.05   1080.72   
29	2007.05   1080.72   
30	2007.05   1080.72   
31	2007.05   1080.72   
32	2007.05   1080.72   
33	2007.05   1080.72   
34	2007.05   1080.72   
35	2007.05   1080.72   
36	2007.05   1080.72   
37	2007.05   1080.72   
38	2007.05   1080.72   
39	2007.05   1080.72   
40	2007.05   1080.72   
41	2007.05   1080.72   
42	2007.05   1080.72   
43	2007.05   1080.72   
44	2007.05   1080.72   
45	501.76    270.18    
; # water needed at front f in time slot t

param M := 100000000; 

param a1:= 10000000;

param a2:= 100;

param a3:= 0.0001;
